
Gurobi 6.5.2 (linux64) logging started Sun Sep 18 18:40:57 2016


Gurobi 6.5.2 (linux64) logging started Sun Sep 18 18:40:57 2016

Optimize a model with 41 rows, 153 columns and 313 nonzeros
Coefficient statistics:
  Matrix range    [1e+00, 2e+00]
  Objective range [4e+00, 1e+02]
  Bounds range    [1e+00, 1e+00]
  RHS range       [1e+00, 1e+00]
Found heuristic solution: objective 1135
Presolve removed 18 rows and 14 columns
Presolve time: 0.00s
Presolved: 23 rows, 139 columns, 281 nonzeros
Variable types: 0 continuous, 139 integer (139 binary)

Root relaxation: objective 4.090000e+02, 33 iterations, 0.00 seconds

    Nodes    |    Current Node    |     Objective Bounds      |     Work
 Expl Unexpl |  Obj  Depth IntInf | Incumbent    BestBd   Gap | It/Node Time

     0     0  409.00000    0    6 1135.00000  409.00000  64.0%     -    0s
H    0     0                     585.0000000  409.00000  30.1%     -    0s
     0     0  410.50000    0    8  585.00000  410.50000  29.8%     -    0s
H    0     0                     535.0000000  410.50000  23.3%     -    0s
     0     0  411.50000    0   15  535.00000  411.50000  23.1%     -    0s
     0     0  412.12500    0   17  535.00000  412.12500  23.0%     -    0s
     0     0  412.90000    0   21  535.00000  412.90000  22.8%     -    0s
     0     2  412.90000    0   21  535.00000  412.90000  22.8%     -    0s
*   89     2              32     487.0000000  419.25000  13.9%   2.7    0s
*  132    10              16     482.0000000  420.00000  12.9%   2.7    0s
*  240    40              25     470.0000000  420.00000  10.6%   3.0    0s
*  415    70              25     467.0000000  420.00000  10.1%   3.0    0s
H  925   133                     457.0000000  420.00000  8.10%   2.9    0s
*  957   116              18     454.0000000  420.00000  7.49%   2.9    0s
H 1152    65                     443.0000000  421.00000  4.97%   2.9    0s
H 1210    75                     442.0000000  421.00000  4.75%   2.8    0s
H 1399     0                     433.0000000  430.00000  0.69%   2.7    0s

Cutting planes:
  Gomory: 2
  Zero half: 3
  Lazy constraints: 212

Explored 1418 nodes (3826 simplex iterations) in 0.09 seconds
Thread count was 8 (of 8 available processors)

Optimal solution found (tolerance 1.00e-04)
Best objective 4.330000000000e+02, best bound 4.330000000000e+02, gap 0.0%
